16 4
83 88 42 29 49 81 65 85 25 44 66 31 90 77 38 72
57 70 33 25 47 79 70 95 40 49 66 41 93 60 42 71
85 85 57 38 63 80 60 105 19 71 67 59 90 83 27 73
77 71 58 33 65 103 77 81 22 56 75 31 110 77 47 82
